p cnf 245 2093
1 2 3 4 5 6 7 0
8 9 10 11 12 13 14 0
15 16 17 18 19 20 21 0
22 23 24 25 26 27 28 0
29 30 31 32 33 34 35 0
36 37 38 39 40 41 42 0
43 44 45 46 47 48 49 0
50 51 52 53 54 55 56 0
57 58 59 60 61 62 63 0
64 65 66 67 68 69 70 0
71 72 73 74 75 76 77 0
78 79 80 81 82 83 84 0
85 86 87 88 89 90 91 0
92 93 94 95 96 97 98 0
99 100 101 102 103 104 105 0
106 107 108 109 110 111 112 0
113 114 115 116 117 118 119 0
120 121 122 123 124 125 126 0
127 128 129 130 131 132 133 0
134 135 136 137 138 139 140 0
141 142 143 144 145 146 147 0
148 149 150 151 152 153 154 0
155 156 157 158 159 160 161 0
162 163 164 165 166 167 168 0
169 170 171 172 173 174 175 0
176 177 178 179 180 181 182 0
183 184 185 186 187 188 189 0
190 191 192 193 194 195 196 0
197 198 199 200 201 202 203 0
204 205 206 207 208 209 210 0
211 212 213 214 215 216 217 0
218 219 220 221 222 223 224 0
225 226 227 228 229 230 231 0
232 233 234 235 236 237 238 0
239 240 241 242 243 244 245 0
-1 -36 0
-2 -37 0
-3 -38 0
-4 -39 0
-5 -40 0
-6 -41 0
-7 -42 0
-1 -43 0
-2 -44 0
-3 -45 0
-4 -46 0
-5 -47 0
-6 -48 0
-7 -49 0
-1 -50 0
-2 -51 0
-3 -52 0
-4 -53 0
-5 -54 0
-6 -55 0
-7 -56 0
-1 -57 0
-2 -58 0
-3 -59 0
-4 -60 0
-5 -61 0
-6 -62 0
-7 -63 0
-1 -71 0
-2 -72 0
-3 -73 0
-4 -74 0
-5 -75 0
-6 -76 0
-7 -77 0
-1 -78 0
-2 -79 0
-3 -80 0
-4 -81 0
-5 -82 0
-6 -83 0
-7 -84 0
-1 -113 0
-2 -114 0
-3 -115 0
-4 -116 0
-5 -117 0
-6 -118 0
-7 -119 0
-1 -120 0
-2 -121 0
-3 -122 0
-4 -123 0
-5 -124 0
-6 -125 0
-7 -126 0
-1 -127 0
-2 -128 0
-3 -129 0
-4 -130 0
-5 -131 0
-6 -132 0
-7 -133 0
-1 -141 0
-2 -142 0
-3 -143 0
-4 -144 0
-5 -145 0
-6 -146 0
-7 -147 0
-1 -155 0
-2 -156 0
-3 -157 0
-4 -158 0
-5 -159 0
-6 -160 0
-7 -161 0
-1 -162 0
-2 -163 0
-3 -164 0
-4 -165 0
-5 -166 0
-6 -167 0
-7 -168 0
-1 -169 0
-2 -170 0
-3 -171 0
-4 -172 0
-5 -173 0
-6 -174 0
-7 -175 0
-1 -183 0
-2 -184 0
-3 -185 0
-4 -186 0
-5 -187 0
-6 -188 0
-7 -189 0
-1 -197 0
-2 -198 0
-3 -199 0
-4 -200 0
-5 -201 0
-6 -202 0
-7 -203 0
-1 -211 0
-2 -212 0
-3 -213 0
-4 -214 0
-5 -215 0
-6 -216 0
-7 -217 0
-1 -218 0
-2 -219 0
-3 -220 0
-4 -221 0
-5 -222 0
-6 -223 0
-7 -224 0
-8 -22 0
-9 -23 0
-10 -24 0
-11 -25 0
-12 -26 0
-13 -27 0
-14 -28 0
-8 -50 0
-9 -51 0
-10 -52 0
-11 -53 0
-12 -54 0
-13 -55 0
-14 -56 0
-8 -71 0
-9 -72 0
-10 -73 0
-11 -74 0
-12 -75 0
-13 -76 0
-14 -77 0
-8 -85 0
-9 -86 0
-10 -87 0
-11 -88 0
-12 -89 0
-13 -90 0
-14 -91 0
-8 -120 0
-9 -121 0
-10 -122 0
-11 -123 0
-12 -124 0
-13 -125 0
-14 -126 0
-8 -148 0
-9 -149 0
-10 -150 0
-11 -151 0
-12 -152 0
-13 -153 0
-14 -154 0
-8 -155 0
-9 -156 0
-10 -157 0
-11 -158 0
-12 -159 0
-13 -160 0
-14 -161 0
-8 -183 0
-9 -184 0
-10 -185 0
-11 -186 0
-12 -187 0
-13 -188 0
-14 -189 0
-8 -190 0
-9 -191 0
-10 -192 0
-11 -193 0
-12 -194 0
-13 -195 0
-14 -196 0
-8 -197 0
-9 -198 0
-10 -199 0
-11 -200 0
-12 -201 0
-13 -202 0
-14 -203 0
-8 -204 0
-9 -205 0
-10 -206 0
-11 -207 0
-12 -208 0
-13 -209 0
-14 -210 0
-8 -218 0
-9 -219 0
-10 -220 0
-11 -221 0
-12 -222 0
-13 -223 0
-14 -224 0
-15 -22 0
-16 -23 0
-17 -24 0
-18 -25 0
-19 -26 0
-20 -27 0
-21 -28 0
-15 -43 0
-16 -44 0
-17 -45 0
-18 -46 0
-19 -47 0
-20 -48 0
-21 -49 0
-15 -57 0
-16 -58 0
-17 -59 0
-18 -60 0
-19 -61 0
-20 -62 0
-21 -63 0
-15 -64 0
-16 -65 0
-17 -66 0
-18 -67 0
-19 -68 0
-20 -69 0
-21 -70 0
-15 -85 0
-16 -86 0
-17 -87 0
-18 -88 0
-19 -89 0
-20 -90 0
-21 -91 0
-15 -106 0
-16 -107 0
-17 -108 0
-18 -109 0
-19 -110 0
-20 -111 0
-21 -112 0
-15 -113 0
-16 -114 0
-17 -115 0
-18 -116 0
-19 -117 0
-20 -118 0
-21 -119 0
-15 -127 0
-16 -128 0
-17 -129 0
-18 -130 0
-19 -131 0
-20 -132 0
-21 -133 0
-15 -155 0
-16 -156 0
-17 -157 0
-18 -158 0
-19 -159 0
-20 -160 0
-21 -161 0
-15 -169 0
-16 -170 0
-17 -171 0
-18 -172 0
-19 -173 0
-20 -174 0
-21 -175 0
-15 -176 0
-16 -177 0
-17 -178 0
-18 -179 0
-19 -180 0
-20 -181 0
-21 -182 0
-15 -183 0
-16 -184 0
-17 -185 0
-18 -186 0
-19 -187 0
-20 -188 0
-21 -189 0
-15 -190 0
-16 -191 0
-17 -192 0
-18 -193 0
-19 -194 0
-20 -195 0
-21 -196 0
-15 -204 0
-16 -205 0
-17 -206 0
-18 -207 0
-19 -208 0
-20 -209 0
-21 -210 0
-15 -211 0
-16 -212 0
-17 -213 0
-18 -214 0
-19 -215 0
-20 -216 0
-21 -217 0
-22 -50 0
-23 -51 0
-24 -52 0
-25 -53 0
-26 -54 0
-27 -55 0
-28 -56 0
-22 -64 0
-23 -65 0
-24 -66 0
-25 -67 0
-26 -68 0
-27 -69 0
-28 -70 0
-22 -71 0
-23 -72 0
-24 -73 0
-25 -74 0
-26 -75 0
-27 -76 0
-28 -77 0
-22 -92 0
-23 -93 0
-24 -94 0
-25 -95 0
-26 -96 0
-27 -97 0
-28 -98 0
-22 -99 0
-23 -100 0
-24 -101 0
-25 -102 0
-26 -103 0
-27 -104 0
-28 -105 0
-22 -120 0
-23 -121 0
-24 -122 0
-25 -123 0
-26 -124 0
-27 -125 0
-28 -126 0
-22 -127 0
-23 -128 0
-24 -129 0
-25 -130 0
-26 -131 0
-27 -132 0
-28 -133 0
-22 -141 0
-23 -142 0
-24 -143 0
-25 -144 0
-26 -145 0
-27 -146 0
-28 -147 0
-22 -155 0
-23 -156 0
-24 -157 0
-25 -158 0
-26 -159 0
-27 -160 0
-28 -161 0
-22 -169 0
-23 -170 0
-24 -171 0
-25 -172 0
-26 -173 0
-27 -174 0
-28 -175 0
-22 -183 0
-23 -184 0
-24 -185 0
-25 -186 0
-26 -187 0
-27 -188 0
-28 -189 0
-22 -190 0
-23 -191 0
-24 -192 0
-25 -193 0
-26 -194 0
-27 -195 0
-28 -196 0
-22 -197 0
-23 -198 0
-24 -199 0
-25 -200 0
-26 -201 0
-27 -202 0
-28 -203 0
-22 -211 0
-23 -212 0
-24 -213 0
-25 -214 0
-26 -215 0
-27 -216 0
-28 -217 0
-22 -239 0
-23 -240 0
-24 -241 0
-25 -242 0
-26 -243 0
-27 -244 0
-28 -245 0
-29 -57 0
-30 -58 0
-31 -59 0
-32 -60 0
-33 -61 0
-34 -62 0
-35 -63 0
-29 -71 0
-30 -72 0
-31 -73 0
-32 -74 0
-33 -75 0
-34 -76 0
-35 -77 0
-29 -85 0
-30 -86 0
-31 -87 0
-32 -88 0
-33 -89 0
-34 -90 0
-35 -91 0
-29 -92 0
-30 -93 0
-31 -94 0
-32 -95 0
-33 -96 0
-34 -97 0
-35 -98 0
-29 -106 0
-30 -107 0
-31 -108 0
-32 -109 0
-33 -110 0
-34 -111 0
-35 -112 0
-29 -113 0
-30 -114 0
-31 -115 0
-32 -116 0
-33 -117 0
-34 -118 0
-35 -119 0
-29 -120 0
-30 -121 0
-31 -122 0
-32 -123 0
-33 -124 0
-34 -125 0
-35 -126 0
-29 -155 0
-30 -156 0
-31 -157 0
-32 -158 0
-33 -159 0
-34 -160 0
-35 -161 0
-29 -183 0
-30 -184 0
-31 -185 0
-32 -186 0
-33 -187 0
-34 -188 0
-35 -189 0
-29 -204 0
-30 -205 0
-31 -206 0
-32 -207 0
-33 -208 0
-34 -209 0
-35 -210 0
-29 -211 0
-30 -212 0
-31 -213 0
-32 -214 0
-33 -215 0
-34 -216 0
-35 -217 0
-29 -239 0
-30 -240 0
-31 -241 0
-32 -242 0
-33 -243 0
-34 -244 0
-35 -245 0
-36 -57 0
-37 -58 0
-38 -59 0
-39 -60 0
-40 -61 0
-41 -62 0
-42 -63 0
-36 -64 0
-37 -65 0
-38 -66 0
-39 -67 0
-40 -68 0
-41 -69 0
-42 -70 0
-36 -78 0
-37 -79 0
-38 -80 0
-39 -81 0
-40 -82 0
-41 -83 0
-42 -84 0
-36 -99 0
-37 -100 0
-38 -101 0
-39 -102 0
-40 -103 0
-41 -104 0
-42 -105 0
-36 -106 0
-37 -107 0
-38 -108 0
-39 -109 0
-40 -110 0
-41 -111 0
-42 -112 0
-36 -127 0
-37 -128 0
-38 -129 0
-39 -130 0
-40 -131 0
-41 -132 0
-42 -133 0
-36 -141 0
-37 -142 0
-38 -143 0
-39 -144 0
-40 -145 0
-41 -146 0
-42 -147 0
-36 -162 0
-37 -163 0
-38 -164 0
-39 -165 0
-40 -166 0
-41 -167 0
-42 -168 0
-36 -183 0
-37 -184 0
-38 -185 0
-39 -186 0
-40 -187 0
-41 -188 0
-42 -189 0
-36 -211 0
-37 -212 0
-38 -213 0
-39 -214 0
-40 -215 0
-41 -216 0
-42 -217 0
-36 -218 0
-37 -219 0
-38 -220 0
-39 -221 0
-40 -222 0
-41 -223 0
-42 -224 0
-36 -232 0
-37 -233 0
-38 -234 0
-39 -235 0
-40 -236 0
-41 -237 0
-42 -238 0
-36 -239 0
-37 -240 0
-38 -241 0
-39 -242 0
-40 -243 0
-41 -244 0
-42 -245 0
-43 -50 0
-44 -51 0
-45 -52 0
-46 -53 0
-47 -54 0
-48 -55 0
-49 -56 0
-43 -64 0
-44 -65 0
-45 -66 0
-46 -67 0
-47 -68 0
-48 -69 0
-49 -70 0
-43 -71 0
-44 -72 0
-45 -73 0
-46 -74 0
-47 -75 0
-48 -76 0
-49 -77 0
-43 -92 0
-44 -93 0
-45 -94 0
-46 -95 0
-47 -96 0
-48 -97 0
-49 -98 0
-43 -113 0
-44 -114 0
-45 -115 0
-46 -116 0
-47 -117 0
-48 -118 0
-49 -119 0
-43 -155 0
-44 -156 0
-45 -157 0
-46 -158 0
-47 -159 0
-48 -160 0
-49 -161 0
-43 -169 0
-44 -170 0
-45 -171 0
-46 -172 0
-47 -173 0
-48 -174 0
-49 -175 0
-43 -183 0
-44 -184 0
-45 -185 0
-46 -186 0
-47 -187 0
-48 -188 0
-49 -189 0
-43 -197 0
-44 -198 0
-45 -199 0
-46 -200 0
-47 -201 0
-48 -202 0
-49 -203 0
-43 -204 0
-44 -205 0
-45 -206 0
-46 -207 0
-47 -208 0
-48 -209 0
-49 -210 0
-43 -211 0
-44 -212 0
-45 -213 0
-46 -214 0
-47 -215 0
-48 -216 0
-49 -217 0
-43 -218 0
-44 -219 0
-45 -220 0
-46 -221 0
-47 -222 0
-48 -223 0
-49 -224 0
-50 -57 0
-51 -58 0
-52 -59 0
-53 -60 0
-54 -61 0
-55 -62 0
-56 -63 0
-50 -64 0
-51 -65 0
-52 -66 0
-53 -67 0
-54 -68 0
-55 -69 0
-56 -70 0
-50 -78 0
-51 -79 0
-52 -80 0
-53 -81 0
-54 -82 0
-55 -83 0
-56 -84 0
-50 -85 0
-51 -86 0
-52 -87 0
-53 -88 0
-54 -89 0
-55 -90 0
-56 -91 0
-50 -113 0
-51 -114 0
-52 -115 0
-53 -116 0
-54 -117 0
-55 -118 0
-56 -119 0
-50 -141 0
-51 -142 0
-52 -143 0
-53 -144 0
-54 -145 0
-55 -146 0
-56 -147 0
-50 -148 0
-51 -149 0
-52 -150 0
-53 -151 0
-54 -152 0
-55 -153 0
-56 -154 0
-50 -162 0
-51 -163 0
-52 -164 0
-53 -165 0
-54 -166 0
-55 -167 0
-56 -168 0
-50 -197 0
-51 -198 0
-52 -199 0
-53 -200 0
-54 -201 0
-55 -202 0
-56 -203 0
-50 -218 0
-51 -219 0
-52 -220 0
-53 -221 0
-54 -222 0
-55 -223 0
-56 -224 0
-50 -239 0
-51 -240 0
-52 -241 0
-53 -242 0
-54 -243 0
-55 -244 0
-56 -245 0
-57 -71 0
-58 -72 0
-59 -73 0
-60 -74 0
-61 -75 0
-62 -76 0
-63 -77 0
-57 -85 0
-58 -86 0
-59 -87 0
-60 -88 0
-61 -89 0
-62 -90 0
-63 -91 0
-57 -92 0
-58 -93 0
-59 -94 0
-60 -95 0
-61 -96 0
-62 -97 0
-63 -98 0
-57 -99 0
-58 -100 0
-59 -101 0
-60 -102 0
-61 -103 0
-62 -104 0
-63 -105 0
-57 -141 0
-58 -142 0
-59 -143 0
-60 -144 0
-61 -145 0
-62 -146 0
-63 -147 0
-57 -148 0
-58 -149 0
-59 -150 0
-60 -151 0
-61 -152 0
-62 -153 0
-63 -154 0
-57 -155 0
-58 -156 0
-59 -157 0
-60 -158 0
-61 -159 0
-62 -160 0
-63 -161 0
-57 -162 0
-58 -163 0
-59 -164 0
-60 -165 0
-61 -166 0
-62 -167 0
-63 -168 0
-57 -169 0
-58 -170 0
-59 -171 0
-60 -172 0
-61 -173 0
-62 -174 0
-63 -175 0
-57 -183 0
-58 -184 0
-59 -185 0
-60 -186 0
-61 -187 0
-62 -188 0
-63 -189 0
-57 -190 0
-58 -191 0
-59 -192 0
-60 -193 0
-61 -194 0
-62 -195 0
-63 -196 0
-57 -197 0
-58 -198 0
-59 -199 0
-60 -200 0
-61 -201 0
-62 -202 0
-63 -203 0
-57 -239 0
-58 -240 0
-59 -241 0
-60 -242 0
-61 -243 0
-62 -244 0
-63 -245 0
-64 -71 0
-65 -72 0
-66 -73 0
-67 -74 0
-68 -75 0
-69 -76 0
-70 -77 0
-64 -99 0
-65 -100 0
-66 -101 0
-67 -102 0
-68 -103 0
-69 -104 0
-70 -105 0
-64 -120 0
-65 -121 0
-66 -122 0
-67 -123 0
-68 -124 0
-69 -125 0
-70 -126 0
-64 -127 0
-65 -128 0
-66 -129 0
-67 -130 0
-68 -131 0
-69 -132 0
-70 -133 0
-64 -141 0
-65 -142 0
-66 -143 0
-67 -144 0
-68 -145 0
-69 -146 0
-70 -147 0
-64 -148 0
-65 -149 0
-66 -150 0
-67 -151 0
-68 -152 0
-69 -153 0
-70 -154 0
-64 -155 0
-65 -156 0
-66 -157 0
-67 -158 0
-68 -159 0
-69 -160 0
-70 -161 0
-64 -176 0
-65 -177 0
-66 -178 0
-67 -179 0
-68 -180 0
-69 -181 0
-70 -182 0
-64 -197 0
-65 -198 0
-66 -199 0
-67 -200 0
-68 -201 0
-69 -202 0
-70 -203 0
-64 -218 0
-65 -219 0
-66 -220 0
-67 -221 0
-68 -222 0
-69 -223 0
-70 -224 0
-71 -78 0
-72 -79 0
-73 -80 0
-74 -81 0
-75 -82 0
-76 -83 0
-77 -84 0
-71 -92 0
-72 -93 0
-73 -94 0
-74 -95 0
-75 -96 0
-76 -97 0
-77 -98 0
-71 -113 0
-72 -114 0
-73 -115 0
-74 -116 0
-75 -117 0
-76 -118 0
-77 -119 0
-71 -120 0
-72 -121 0
-73 -122 0
-74 -123 0
-75 -124 0
-76 -125 0
-77 -126 0
-71 -127 0
-72 -128 0
-73 -129 0
-74 -130 0
-75 -131 0
-76 -132 0
-77 -133 0
-71 -134 0
-72 -135 0
-73 -136 0
-74 -137 0
-75 -138 0
-76 -139 0
-77 -140 0
-71 -141 0
-72 -142 0
-73 -143 0
-74 -144 0
-75 -145 0
-76 -146 0
-77 -147 0
-71 -155 0
-72 -156 0
-73 -157 0
-74 -158 0
-75 -159 0
-76 -160 0
-77 -161 0
-71 -169 0
-72 -170 0
-73 -171 0
-74 -172 0
-75 -173 0
-76 -174 0
-77 -175 0
-71 -190 0
-72 -191 0
-73 -192 0
-74 -193 0
-75 -194 0
-76 -195 0
-77 -196 0
-71 -204 0
-72 -205 0
-73 -206 0
-74 -207 0
-75 -208 0
-76 -209 0
-77 -210 0
-71 -218 0
-72 -219 0
-73 -220 0
-74 -221 0
-75 -222 0
-76 -223 0
-77 -224 0
-78 -92 0
-79 -93 0
-80 -94 0
-81 -95 0
-82 -96 0
-83 -97 0
-84 -98 0
-78 -99 0
-79 -100 0
-80 -101 0
-81 -102 0
-82 -103 0
-83 -104 0
-84 -105 0
-78 -106 0
-79 -107 0
-80 -108 0
-81 -109 0
-82 -110 0
-83 -111 0
-84 -112 0
-78 -113 0
-79 -114 0
-80 -115 0
-81 -116 0
-82 -117 0
-83 -118 0
-84 -119 0
-78 -120 0
-79 -121 0
-80 -122 0
-81 -123 0
-82 -124 0
-83 -125 0
-84 -126 0
-78 -127 0
-79 -128 0
-80 -129 0
-81 -130 0
-82 -131 0
-83 -132 0
-84 -133 0
-78 -183 0
-79 -184 0
-80 -185 0
-81 -186 0
-82 -187 0
-83 -188 0
-84 -189 0
-78 -225 0
-79 -226 0
-80 -227 0
-81 -228 0
-82 -229 0
-83 -230 0
-84 -231 0
-78 -239 0
-79 -240 0
-80 -241 0
-81 -242 0
-82 -243 0
-83 -244 0
-84 -245 0
-85 -106 0
-86 -107 0
-87 -108 0
-88 -109 0
-89 -110 0
-90 -111 0
-91 -112 0
-85 -113 0
-86 -114 0
-87 -115 0
-88 -116 0
-89 -117 0
-90 -118 0
-91 -119 0
-85 -141 0
-86 -142 0
-87 -143 0
-88 -144 0
-89 -145 0
-90 -146 0
-91 -147 0
-85 -148 0
-86 -149 0
-87 -150 0
-88 -151 0
-89 -152 0
-90 -153 0
-91 -154 0
-85 -155 0
-86 -156 0
-87 -157 0
-88 -158 0
-89 -159 0
-90 -160 0
-91 -161 0
-85 -162 0
-86 -163 0
-87 -164 0
-88 -165 0
-89 -166 0
-90 -167 0
-91 -168 0
-85 -183 0
-86 -184 0
-87 -185 0
-88 -186 0
-89 -187 0
-90 -188 0
-91 -189 0
-85 -190 0
-86 -191 0
-87 -192 0
-88 -193 0
-89 -194 0
-90 -195 0
-91 -196 0
-85 -232 0
-86 -233 0
-87 -234 0
-88 -235 0
-89 -236 0
-90 -237 0
-91 -238 0
-85 -239 0
-86 -240 0
-87 -241 0
-88 -242 0
-89 -243 0
-90 -244 0
-91 -245 0
-92 -113 0
-93 -114 0
-94 -115 0
-95 -116 0
-96 -117 0
-97 -118 0
-98 -119 0
-92 -127 0
-93 -128 0
-94 -129 0
-95 -130 0
-96 -131 0
-97 -132 0
-98 -133 0
-92 -134 0
-93 -135 0
-94 -136 0
-95 -137 0
-96 -138 0
-97 -139 0
-98 -140 0
-92 -148 0
-93 -149 0
-94 -150 0
-95 -151 0
-96 -152 0
-97 -153 0
-98 -154 0
-92 -162 0
-93 -163 0
-94 -164 0
-95 -165 0
-96 -166 0
-97 -167 0
-98 -168 0
-92 -169 0
-93 -170 0
-94 -171 0
-95 -172 0
-96 -173 0
-97 -174 0
-98 -175 0
-92 -190 0
-93 -191 0
-94 -192 0
-95 -193 0
-96 -194 0
-97 -195 0
-98 -196 0
-92 -204 0
-93 -205 0
-94 -206 0
-95 -207 0
-96 -208 0
-97 -209 0
-98 -210 0
-92 -218 0
-93 -219 0
-94 -220 0
-95 -221 0
-96 -222 0
-97 -223 0
-98 -224 0
-92 -225 0
-93 -226 0
-94 -227 0
-95 -228 0
-96 -229 0
-97 -230 0
-98 -231 0
-92 -232 0
-93 -233 0
-94 -234 0
-95 -235 0
-96 -236 0
-97 -237 0
-98 -238 0
-92 -239 0
-93 -240 0
-94 -241 0
-95 -242 0
-96 -243 0
-97 -244 0
-98 -245 0
-99 -106 0
-100 -107 0
-101 -108 0
-102 -109 0
-103 -110 0
-104 -111 0
-105 -112 0
-99 -120 0
-100 -121 0
-101 -122 0
-102 -123 0
-103 -124 0
-104 -125 0
-105 -126 0
-99 -134 0
-100 -135 0
-101 -136 0
-102 -137 0
-103 -138 0
-104 -139 0
-105 -140 0
-99 -162 0
-100 -163 0
-101 -164 0
-102 -165 0
-103 -166 0
-104 -167 0
-105 -168 0
-99 -169 0
-100 -170 0
-101 -171 0
-102 -172 0
-103 -173 0
-104 -174 0
-105 -175 0
-99 -176 0
-100 -177 0
-101 -178 0
-102 -179 0
-103 -180 0
-104 -181 0
-105 -182 0
-99 -183 0
-100 -184 0
-101 -185 0
-102 -186 0
-103 -187 0
-104 -188 0
-105 -189 0
-99 -190 0
-100 -191 0
-101 -192 0
-102 -193 0
-103 -194 0
-104 -195 0
-105 -196 0
-99 -197 0
-100 -198 0
-101 -199 0
-102 -200 0
-103 -201 0
-104 -202 0
-105 -203 0
-99 -204 0
-100 -205 0
-101 -206 0
-102 -207 0
-103 -208 0
-104 -209 0
-105 -210 0
-99 -218 0
-100 -219 0
-101 -220 0
-102 -221 0
-103 -222 0
-104 -223 0
-105 -224 0
-99 -225 0
-100 -226 0
-101 -227 0
-102 -228 0
-103 -229 0
-104 -230 0
-105 -231 0
-106 -113 0
-107 -114 0
-108 -115 0
-109 -116 0
-110 -117 0
-111 -118 0
-112 -119 0
-106 -120 0
-107 -121 0
-108 -122 0
-109 -123 0
-110 -124 0
-111 -125 0
-112 -126 0
-106 -127 0
-107 -128 0
-108 -129 0
-109 -130 0
-110 -131 0
-111 -132 0
-112 -133 0
-106 -141 0
-107 -142 0
-108 -143 0
-109 -144 0
-110 -145 0
-111 -146 0
-112 -147 0
-106 -148 0
-107 -149 0
-108 -150 0
-109 -151 0
-110 -152 0
-111 -153 0
-112 -154 0
-106 -162 0
-107 -163 0
-108 -164 0
-109 -165 0
-110 -166 0
-111 -167 0
-112 -168 0
-106 -169 0
-107 -170 0
-108 -171 0
-109 -172 0
-110 -173 0
-111 -174 0
-112 -175 0
-106 -176 0
-107 -177 0
-108 -178 0
-109 -179 0
-110 -180 0
-111 -181 0
-112 -182 0
-106 -183 0
-107 -184 0
-108 -185 0
-109 -186 0
-110 -187 0
-111 -188 0
-112 -189 0
-106 -225 0
-107 -226 0
-108 -227 0
-109 -228 0
-110 -229 0
-111 -230 0
-112 -231 0
-106 -232 0
-107 -233 0
-108 -234 0
-109 -235 0
-110 -236 0
-111 -237 0
-112 -238 0
-106 -239 0
-107 -240 0
-108 -241 0
-109 -242 0
-110 -243 0
-111 -244 0
-112 -245 0
-113 -120 0
-114 -121 0
-115 -122 0
-116 -123 0
-117 -124 0
-118 -125 0
-119 -126 0
-113 -134 0
-114 -135 0
-115 -136 0
-116 -137 0
-117 -138 0
-118 -139 0
-119 -140 0
-113 -141 0
-114 -142 0
-115 -143 0
-116 -144 0
-117 -145 0
-118 -146 0
-119 -147 0
-113 -148 0
-114 -149 0
-115 -150 0
-116 -151 0
-117 -152 0
-118 -153 0
-119 -154 0
-113 -155 0
-114 -156 0
-115 -157 0
-116 -158 0
-117 -159 0
-118 -160 0
-119 -161 0
-113 -169 0
-114 -170 0
-115 -171 0
-116 -172 0
-117 -173 0
-118 -174 0
-119 -175 0
-113 -176 0
-114 -177 0
-115 -178 0
-116 -179 0
-117 -180 0
-118 -181 0
-119 -182 0
-113 -190 0
-114 -191 0
-115 -192 0
-116 -193 0
-117 -194 0
-118 -195 0
-119 -196 0
-113 -197 0
-114 -198 0
-115 -199 0
-116 -200 0
-117 -201 0
-118 -202 0
-119 -203 0
-113 -204 0
-114 -205 0
-115 -206 0
-116 -207 0
-117 -208 0
-118 -209 0
-119 -210 0
-113 -225 0
-114 -226 0
-115 -227 0
-116 -228 0
-117 -229 0
-118 -230 0
-119 -231 0
-113 -239 0
-114 -240 0
-115 -241 0
-116 -242 0
-117 -243 0
-118 -244 0
-119 -245 0
-120 -141 0
-121 -142 0
-122 -143 0
-123 -144 0
-124 -145 0
-125 -146 0
-126 -147 0
-120 -148 0
-121 -149 0
-122 -150 0
-123 -151 0
-124 -152 0
-125 -153 0
-126 -154 0
-120 -162 0
-121 -163 0
-122 -164 0
-123 -165 0
-124 -166 0
-125 -167 0
-126 -168 0
-120 -176 0
-121 -177 0
-122 -178 0
-123 -179 0
-124 -180 0
-125 -181 0
-126 -182 0
-120 -190 0
-121 -191 0
-122 -192 0
-123 -193 0
-124 -194 0
-125 -195 0
-126 -196 0
-120 -204 0
-121 -205 0
-122 -206 0
-123 -207 0
-124 -208 0
-125 -209 0
-126 -210 0
-120 -211 0
-121 -212 0
-122 -213 0
-123 -214 0
-124 -215 0
-125 -216 0
-126 -217 0
-120 -218 0
-121 -219 0
-122 -220 0
-123 -221 0
-124 -222 0
-125 -223 0
-126 -224 0
-120 -232 0
-121 -233 0
-122 -234 0
-123 -235 0
-124 -236 0
-125 -237 0
-126 -238 0
-120 -239 0
-121 -240 0
-122 -241 0
-123 -242 0
-124 -243 0
-125 -244 0
-126 -245 0
-127 -155 0
-128 -156 0
-129 -157 0
-130 -158 0
-131 -159 0
-132 -160 0
-133 -161 0
-127 -169 0
-128 -170 0
-129 -171 0
-130 -172 0
-131 -173 0
-132 -174 0
-133 -175 0
-127 -176 0
-128 -177 0
-129 -178 0
-130 -179 0
-131 -180 0
-132 -181 0
-133 -182 0
-127 -183 0
-128 -184 0
-129 -185 0
-130 -186 0
-131 -187 0
-132 -188 0
-133 -189 0
-127 -197 0
-128 -198 0
-129 -199 0
-130 -200 0
-131 -201 0
-132 -202 0
-133 -203 0
-127 -211 0
-128 -212 0
-129 -213 0
-130 -214 0
-131 -215 0
-132 -216 0
-133 -217 0
-134 -141 0
-135 -142 0
-136 -143 0
-137 -144 0
-138 -145 0
-139 -146 0
-140 -147 0
-134 -148 0
-135 -149 0
-136 -150 0
-137 -151 0
-138 -152 0
-139 -153 0
-140 -154 0
-134 -162 0
-135 -163 0
-136 -164 0
-137 -165 0
-138 -166 0
-139 -167 0
-140 -168 0
-134 -183 0
-135 -184 0
-136 -185 0
-137 -186 0
-138 -187 0
-139 -188 0
-140 -189 0
-134 -197 0
-135 -198 0
-136 -199 0
-137 -200 0
-138 -201 0
-139 -202 0
-140 -203 0
-134 -211 0
-135 -212 0
-136 -213 0
-137 -214 0
-138 -215 0
-139 -216 0
-140 -217 0
-134 -218 0
-135 -219 0
-136 -220 0
-137 -221 0
-138 -222 0
-139 -223 0
-140 -224 0
-134 -225 0
-135 -226 0
-136 -227 0
-137 -228 0
-138 -229 0
-139 -230 0
-140 -231 0
-134 -232 0
-135 -233 0
-136 -234 0
-137 -235 0
-138 -236 0
-139 -237 0
-140 -238 0
-134 -239 0
-135 -240 0
-136 -241 0
-137 -242 0
-138 -243 0
-139 -244 0
-140 -245 0
-141 -162 0
-142 -163 0
-143 -164 0
-144 -165 0
-145 -166 0
-146 -167 0
-147 -168 0
-141 -197 0
-142 -198 0
-143 -199 0
-144 -200 0
-145 -201 0
-146 -202 0
-147 -203 0
-141 -204 0
-142 -205 0
-143 -206 0
-144 -207 0
-145 -208 0
-146 -209 0
-147 -210 0
-141 -239 0
-142 -240 0
-143 -241 0
-144 -242 0
-145 -243 0
-146 -244 0
-147 -245 0
-148 -169 0
-149 -170 0
-150 -171 0
-151 -172 0
-152 -173 0
-153 -174 0
-154 -175 0
-148 -176 0
-149 -177 0
-150 -178 0
-151 -179 0
-152 -180 0
-153 -181 0
-154 -182 0
-148 -183 0
-149 -184 0
-150 -185 0
-151 -186 0
-152 -187 0
-153 -188 0
-154 -189 0
-148 -197 0
-149 -198 0
-150 -199 0
-151 -200 0
-152 -201 0
-153 -202 0
-154 -203 0
-148 -218 0
-149 -219 0
-150 -220 0
-151 -221 0
-152 -222 0
-153 -223 0
-154 -224 0
-155 -176 0
-156 -177 0
-157 -178 0
-158 -179 0
-159 -180 0
-160 -181 0
-161 -182 0
-155 -183 0
-156 -184 0
-157 -185 0
-158 -186 0
-159 -187 0
-160 -188 0
-161 -189 0
-155 -190 0
-156 -191 0
-157 -192 0
-158 -193 0
-159 -194 0
-160 -195 0
-161 -196 0
-155 -197 0
-156 -198 0
-157 -199 0
-158 -200 0
-159 -201 0
-160 -202 0
-161 -203 0
-155 -204 0
-156 -205 0
-157 -206 0
-158 -207 0
-159 -208 0
-160 -209 0
-161 -210 0
-155 -211 0
-156 -212 0
-157 -213 0
-158 -214 0
-159 -215 0
-160 -216 0
-161 -217 0
-155 -218 0
-156 -219 0
-157 -220 0
-158 -221 0
-159 -222 0
-160 -223 0
-161 -224 0
-155 -232 0
-156 -233 0
-157 -234 0
-158 -235 0
-159 -236 0
-160 -237 0
-161 -238 0
-155 -239 0
-156 -240 0
-157 -241 0
-158 -242 0
-159 -243 0
-160 -244 0
-161 -245 0
-162 -169 0
-163 -170 0
-164 -171 0
-165 -172 0
-166 -173 0
-167 -174 0
-168 -175 0
-162 -176 0
-163 -177 0
-164 -178 0
-165 -179 0
-166 -180 0
-167 -181 0
-168 -182 0
-162 -204 0
-163 -205 0
-164 -206 0
-165 -207 0
-166 -208 0
-167 -209 0
-168 -210 0
-162 -211 0
-163 -212 0
-164 -213 0
-165 -214 0
-166 -215 0
-167 -216 0
-168 -217 0
-162 -218 0
-163 -219 0
-164 -220 0
-165 -221 0
-166 -222 0
-167 -223 0
-168 -224 0
-162 -225 0
-163 -226 0
-164 -227 0
-165 -228 0
-166 -229 0
-167 -230 0
-168 -231 0
-162 -239 0
-163 -240 0
-164 -241 0
-165 -242 0
-166 -243 0
-167 -244 0
-168 -245 0
-169 -176 0
-170 -177 0
-171 -178 0
-172 -179 0
-173 -180 0
-174 -181 0
-175 -182 0
-169 -183 0
-170 -184 0
-171 -185 0
-172 -186 0
-173 -187 0
-174 -188 0
-175 -189 0
-169 -197 0
-170 -198 0
-171 -199 0
-172 -200 0
-173 -201 0
-174 -202 0
-175 -203 0
-169 -204 0
-170 -205 0
-171 -206 0
-172 -207 0
-173 -208 0
-174 -209 0
-175 -210 0
-169 -218 0
-170 -219 0
-171 -220 0
-172 -221 0
-173 -222 0
-174 -223 0
-175 -224 0
-169 -239 0
-170 -240 0
-171 -241 0
-172 -242 0
-173 -243 0
-174 -244 0
-175 -245 0
-176 -197 0
-177 -198 0
-178 -199 0
-179 -200 0
-180 -201 0
-181 -202 0
-182 -203 0
-176 -204 0
-177 -205 0
-178 -206 0
-179 -207 0
-180 -208 0
-181 -209 0
-182 -210 0
-176 -211 0
-177 -212 0
-178 -213 0
-179 -214 0
-180 -215 0
-181 -216 0
-182 -217 0
-176 -218 0
-177 -219 0
-178 -220 0
-179 -221 0
-180 -222 0
-181 -223 0
-182 -224 0
-176 -225 0
-177 -226 0
-178 -227 0
-179 -228 0
-180 -229 0
-181 -230 0
-182 -231 0
-176 -232 0
-177 -233 0
-178 -234 0
-179 -235 0
-180 -236 0
-181 -237 0
-182 -238 0
-176 -239 0
-177 -240 0
-178 -241 0
-179 -242 0
-180 -243 0
-181 -244 0
-182 -245 0
-183 -190 0
-184 -191 0
-185 -192 0
-186 -193 0
-187 -194 0
-188 -195 0
-189 -196 0
-183 -197 0
-184 -198 0
-185 -199 0
-186 -200 0
-187 -201 0
-188 -202 0
-189 -203 0
-183 -211 0
-184 -212 0
-185 -213 0
-186 -214 0
-187 -215 0
-188 -216 0
-189 -217 0
-183 -218 0
-184 -219 0
-185 -220 0
-186 -221 0
-187 -222 0
-188 -223 0
-189 -224 0
-183 -225 0
-184 -226 0
-185 -227 0
-186 -228 0
-187 -229 0
-188 -230 0
-189 -231 0
-190 -197 0
-191 -198 0
-192 -199 0
-193 -200 0
-194 -201 0
-195 -202 0
-196 -203 0
-190 -211 0
-191 -212 0
-192 -213 0
-193 -214 0
-194 -215 0
-195 -216 0
-196 -217 0
-190 -218 0
-191 -219 0
-192 -220 0
-193 -221 0
-194 -222 0
-195 -223 0
-196 -224 0
-197 -211 0
-198 -212 0
-199 -213 0
-200 -214 0
-201 -215 0
-202 -216 0
-203 -217 0
-197 -225 0
-198 -226 0
-199 -227 0
-200 -228 0
-201 -229 0
-202 -230 0
-203 -231 0
-197 -239 0
-198 -240 0
-199 -241 0
-200 -242 0
-201 -243 0
-202 -244 0
-203 -245 0
-204 -211 0
-205 -212 0
-206 -213 0
-207 -214 0
-208 -215 0
-209 -216 0
-210 -217 0
-204 -225 0
-205 -226 0
-206 -227 0
-207 -228 0
-208 -229 0
-209 -230 0
-210 -231 0
-204 -232 0
-205 -233 0
-206 -234 0
-207 -235 0
-208 -236 0
-209 -237 0
-210 -238 0
-204 -239 0
-205 -240 0
-206 -241 0
-207 -242 0
-208 -243 0
-209 -244 0
-210 -245 0
-211 -225 0
-212 -226 0
-213 -227 0
-214 -228 0
-215 -229 0
-216 -230 0
-217 -231 0
-211 -239 0
-212 -240 0
-213 -241 0
-214 -242 0
-215 -243 0
-216 -244 0
-217 -245 0
-218 -225 0
-219 -226 0
-220 -227 0
-221 -228 0
-222 -229 0
-223 -230 0
-224 -231 0
-218 -239 0
-219 -240 0
-220 -241 0
-221 -242 0
-222 -243 0
-223 -244 0
-224 -245 0
-225 -232 0
-226 -233 0
-227 -234 0
-228 -235 0
-229 -236 0
-230 -237 0
-231 -238 0
-232 -239 0
-233 -240 0
-234 -241 0
-235 -242 0
-236 -243 0
-237 -244 0
-238 -245 0
